\ LP format - for model browsing. Use MPS format to capture full model detail.
Minimize
  0 B33(0) + 0 B34(0) + 0 B35(0) + 0 B38(0) + 0 B41(0) + 0 B43(0) + 0 B44(0)
   + 0 B47(0) + 0 B48(0) + 0 B49(0) + 0 B50(0) + 0 B51(0) + 0 B53(0)
   + 0 B58(0) + 0 B62(0) + 0 B63(0) + 0 B64(0) + 0 B65(0) + 0 B66(0)
   + 0 B67(0) + 0 B69(0) + 0 B72(0) + 0 B75(0) + 0 B78(0) + 0 B79(0)
   + 0 B80(0) + 0 B81(0) + 0 B82(0) + 0 B83(0) + 0 B86(0) + 0 B88(0)
   + 0 B89(0) + 0 B92(0) + 0 B93(0) + 0 B94(0) + 0 B95(0) + 0 B96(0)
   + 0 B97(0) + 0 B98(0) + 0 B101(0) + 0 B103(0) + 0 B104(0) + 0 B107(0)
   + 0 B108(0) + 0 B109(0) + 0 B110(0) + 0 B111(0) + 0 B112(0) + 0 B113(0)
   + 0 B114(0) + 0 B115(0) + 0 B117(0) + 0 B120(0) + 0 B123(0) + 0 B124(0)
   + 0 B125(0) + 0 B126(0) + 0 B127(0) + 0 B128(0) + 0 B129(0) + 0 B130(0)
   + 0 B131(0) + 0 B133(0) + 0 B134(0) + 0 B136(0) + 0 B137(0) + 0 B138(0)
   + 0 B139(0) + 0 B140(0) + 0 B141(0) + 0 B142(0) + 0 B143(0) + 0 B144(0)
   + 0 B145(0) + 0 B146(0) + 0 B147(0) + 0 B148(0) + 0 B152(0) + 0 B153(0)
   + 0 B154(0) + 0 B155(0) + 0 B156(0) + 0 B157(0) + 0 B158(0) + 0 B159(0)
   + 0 B160(0) + 0 B161(0) + 0 B162(0) + 0 B165(0) + 0 B168(0) + 0 B169(0)
   + 0 B170(0) + 0 B171(0) + 0 B172(0) + 0 B173(0) + 0 B174(0) + 0 B175(0)
   + 0 B176(0) + 0 B177(0) + 0 B178(0) + 0 B179(0) + 0 B181(0) + 0 B182(0)
   + 0 B183(0) + 0 B184(0) + 0 B185(0) + 0 B186(0) + 0 B187(0) + 0 B188(0)
   + 0 B189(0) + 0 B190(0) + 0 B191(0) + 0 B192(0) + 0 B193(0) + 0 B194(0)
   + 0 B195(0) + 0 B198(0) + 0 B199(0) + 0 B200(0) + 0 B201(0) + 0 B202(0)
   + 0 B203(0) + 0 B204(0) + 0 B205(0) + 0 B206(0) + 0 B207(0) + 0 B208(0)
   + 0 B209(0) + 0 B210(0) + 0 B213(0) + 0 B214(0) + 0 B215(0) + 0 B216(0)
   + 0 B217(0) + 0 B218(0) + 0 B219(0) + 0 B220(0) + 0 B221(0) + 0 B222(0)
   + 0 B223(0) + 0 B224(0) + 0 B225(0) + 0 B226(0) + 0 B227(0) + 0 B228(0)
   + 0 B229(0) + 0 B230(0) + 0 B231(0) + 0 B232(0) + 0 B233(0) + 0 B234(0)
   + 0 B235(0) + 0 B236(0) + 0 B237(0) + 0 B238(0) + 0 B239(0) + 0 B240(0)
   + 0 B241(0) + 0 B242(0) + 0 B243(0) + 0 B244(0) + 0 B245(0) + 0 B246(0)
   + 0 B247(0) + 0 B248(0) + 0 B249(0) + 0 B250(0) + 0 B251(0) + 0 B252(0)
   + 0 B253(0) + 0 B254(0) + 0 B255(0) + 0 B256(0) + 0 B257(0) + I291(1)
Subject To
 c0: B0(14) + B1(14) + B2(16) = 1
 c1: B3(14) + B4(15) = 1
 c2: B5(13) + B6(14) = 1
 c3: B7(14) + B8(14) = 1
 c4: B9(14) + B10(15) = 1
 c5: B11(14) + B12(10) = 1
 c6: B13(13) + B14(15) = 1
 c7: B15(16) + B16(14) = 1
 c8: B17(13) + B18(14) + B19(10) = 1
 c9: B20(14) + B21(16) = 1
 c10: B22(16) = 1
 c11: B23(15) + B24(11) = 1
 c12: B25(17) + B26(15) + B27(15) = 1
 c13: B28(16) + B29(17) + B30(15) = 1
 c14: B31(14) + B32(11) = 1
 c15: - 1e+09 B0(14) + I258(15) <= 0
 c16: - 1e+09 B1(14) + I259(15) <= 0
 c17: - 1e+09 B2(16) + I260(17) <= 0
 c18: - 1e+09 B3(14) + I261(17) <= 0
 c19: - 1e+09 B4(15) + I262(17) <= 0
 c20: - 1e+09 B5(13) + I263(16) <= 0
 c21: - 1e+09 B6(14) + I264(18) <= 0
 c22: - 1e+09 B7(14) + I265(15) <= 0
 c23: - 1e+09 B8(14) + I266(15) <= 0
 c24: - 1e+09 B9(14) + I267(16) <= 0
 c25: - 1e+09 B10(15) + I268(18) <= 0
 c26: - 1e+09 B11(14) + I269(17) <= 0
 c27: - 1e+09 B12(10) + I270(13) <= 0
 c28: - 1e+09 B13(13) + I271(14) <= 0
 c29: - 1e+09 B14(15) + I272(16) <= 0
 c30: - 1e+09 B15(16) + I273(18) <= 0
 c31: - 1e+09 B16(14) + I274(16) <= 0
 c32: - 1e+09 B17(13) + I275(16) <= 0
 c33: - 1e+09 B18(14) + I276(18) <= 0
 c34: - 1e+09 B19(10) + I277(14) <= 0
 c35: - 1e+09 B20(14) + I278(14) <= 0
 c36: - 1e+09 B21(16) + I279(16) <= 0
 c37: - 1e+09 B22(16) + I280(17) <= 0
 c38: - 1e+09 B23(15) + I281(17) <= 0
 c39: - 1e+09 B24(11) + I282(13) <= 0
 c40: - 1e+09 B25(17) + I283(17) <= 0
 c41: - 1e+09 B26(15) + I284(15) <= 0
 c42: - 1e+09 B27(15) + I285(15) <= 0
 c43: - 1e+09 B28(16) + I286(17) <= 0
 c44: - 1e+09 B29(17) + I287(19) <= 0
 c45: - 1e+09 B30(15) + I288(17) <= 0
 c46: - 1e+09 B31(14) + I289(16) <= 0
 c47: - 1e+09 B32(11) + I290(14) <= 0
 c48: - 147 B0(14) - 123 B1(14) - 145 B2(16) - I258(15) - I259(15)
   - I260(17) + I261(17) + I262(17) >= 0
 c49: - 147 B0(14) - 1.000000123e+09 B1(14) - 145 B2(16) - 1e+09 B4(15)
   - I258(15) - I259(15) - I260(17) + I261(17) + I262(17)
   >= -1.999999991e+09
 c50: - 140 B3(14) - 130 B4(15) - I261(17) - I262(17) + I263(16) + I264(18)
   >= 0
 c51: - 1.00000014e+09 B3(14) - 130 B4(15) - 1e+09 B5(13) - I261(17)
   - I262(17) + I263(16) + I264(18) >= -1.999999986e+09
 c52: - 214 B7(14) - 150 B8(14) - I265(15) - I266(15) + I267(16) + I268(18)
   >= 0
 c53: - 214 B7(14) - 1.00000015e+09 B8(14) - 1e+09 B9(14) - I265(15)
   - I266(15) + I267(16) + I268(18) >= -1.999999988e+09
 c54: - 87 B9(14) - 66 B10(15) - I267(16) - I268(18) + I269(17) + I270(13)
   >= 0
 c55: - 87 B13(13) - 62 B14(15) - I271(14) - I272(16) + I273(18) + I274(16)
   >= 0
 c56: - 180 B15(16) - 105 B16(14) - I273(18) - I274(16) + I275(16)
   + I276(18) + I277(14) >= 0
 c57: - 180 B15(16) - 1.000000105e+09 B16(14) - 1e+09 B17(13) - I273(18)
   - I274(16) + I275(16) + I276(18) + I277(14) >= -1.999999988e+09
 c58: - 87 B20(14) - 65 B21(16) - I278(14) - I279(16) + I280(17) >= 0
 c59: - 173 B22(16) - I280(17) + I281(17) + I282(13) >= 0
 c60: - 123 B25(17) - 145 B26(15) - 128 B27(15) - I283(17) - I284(15)
   - I285(15) + I286(17) + I287(19) + I288(17) >= 0
 c61: - 123 B25(17) - 1.000000145e+09 B26(15) - 128 B27(15) - 1e+09 B28(16)
   - I283(17) - I284(15) - I285(15) + I286(17) + I287(19) + I288(17)
   >= -1.999999991e+09
 c62: - 86 B28(16) - 65 B29(17) - 47 B30(15) - I286(17) - I287(19)
   - I288(17) + I289(16) + I290(14) >= 0
 c63: - 86 B28(16) - 65 B29(17) - 1.000000047e+09 B30(15) - 1e+09 B31(14)
   - I286(17) - I287(19) - I288(17) + I289(16) + I290(14)
   >= -1.999999988e+09
 c64: - 1e+09 B0(14) - 1e+09 B7(14) - 1e+09 B36(4) + I258(15) - I265(15)
   >= -2.999999771e+09
 c65: - 1e+09 B0(14) - 1e+09 B7(14) + 1e+09 B36(4) - I258(15) + I265(15)
   >= -1.999999842e+09
 c66: - 1e+09 B2(16) - 1e+09 B8(14) - 1e+09 B36(4) + I260(17) - I266(15)
   >= -2.999999839e+09
 c67: - 1e+09 B2(16) - 1e+09 B8(14) + 1e+09 B36(4) - I260(17) + I266(15)
   >= -1.999999845e+09
 c68: - 1e+09 B1(14) - 1e+09 B10(15) - 1e+09 B37(4) + I259(15) - I268(18)
   >= -2.999999923e+09
 c69: - 1e+09 B1(14) - 1e+09 B10(15) + 1e+09 B37(4) - I259(15) + I268(18)
   >= -1.999999862e+09
 c70: - 1e+09 B2(16) - 1e+09 B9(14) - 1e+09 B37(4) + I260(17) - I267(16)
   >= -2.999999903e+09
 c71: - 1e+09 B2(16) - 1e+09 B9(14) + 1e+09 B37(4) - I260(17) + I267(16)
   >= -1.999999842e+09
 c72: - 1e+09 B0(14) - 1e+09 B13(13) - 1e+09 B39(4) + I258(15) - I271(14)
   >= -2.999999901e+09
 c73: - 1e+09 B0(14) - 1e+09 B13(13) + 1e+09 B39(4) - I258(15) + I271(14)
   >= -1.999999841e+09
 c74: - 1e+09 B1(14) - 1e+09 B14(15) - 1e+09 B39(4) + I259(15) - I272(16)
   >= -2.999999925e+09
 c75: - 1e+09 B1(14) - 1e+09 B14(15) + 1e+09 B39(4) - I259(15) + I272(16)
   >= -1.999999864e+09
 c76: - 1e+09 B2(16) - 1e+09 B15(16) - 1e+09 B40(2) + I260(17) - I273(18)
   >= -2.999999804e+09
 c77: - 1e+09 B2(16) - 1e+09 B15(16) + 1e+09 B40(2) - I260(17) + I273(18)
   >= -1.99999984e+09
 c78: - 1e+09 B0(14) - 1e+09 B20(14) - 1e+09 B42(4) + I258(15) - I278(14)
   >= -2.999999902e+09
 c79: - 1e+09 B0(14) - 1e+09 B20(14) + 1e+09 B42(4) - I258(15) + I278(14)
   >= -1.999999841e+09
 c80: - 1e+09 B1(14) - 1e+09 B21(16) - 1e+09 B42(4) + I259(15) - I279(16)
   >= -2.999999921e+09
 c81: - 1e+09 B1(14) - 1e+09 B21(16) + 1e+09 B42(4) - I259(15) + I279(16)
   >= -1.999999863e+09
 c82: - 1e+09 B0(14) - 1e+09 B27(15) - 1e+09 B45(6) + I258(15) - I285(15)
   >= -2.999999861e+09
 c83: - 1e+09 B0(14) - 1e+09 B27(15) + 1e+09 B45(6) - I258(15) + I285(15)
   >= -1.999999841e+09
 c84: - 1e+09 B1(14) - 1e+09 B25(17) - 1e+09 B45(6) + I259(15) - I283(17)
   >= -2.999999867e+09
 c85: - 1e+09 B1(14) - 1e+09 B25(17) + 1e+09 B45(6) - I259(15) + I283(17)
   >= -1.999999869e+09
 c86: - 1e+09 B2(16) - 1e+09 B26(15) - 1e+09 B45(6) + I260(17) - I284(15)
   >= -2.999999842e+09
 c87: - 1e+09 B2(16) - 1e+09 B26(15) + 1e+09 B45(6) - I260(17) + I284(15)
   >= -1.999999843e+09
 c88: - 1e+09 B2(16) - 1e+09 B28(16) - 1e+09 B46(2) + I260(17) - I286(17)
   >= -2.9999999e+09
 c89: - 1e+09 B2(16) - 1e+09 B28(16) + 1e+09 B46(2) - I260(17) + I286(17)
   >= -1.999999842e+09
 c90: - 1e+09 B4(15) - 1e+09 B10(15) - 1e+09 B52(2) + I262(17) - I268(18)
   >= -2.999999918e+09
 c91: - 1e+09 B4(15) - 1e+09 B10(15) + 1e+09 B52(2) - I262(17) + I268(18)
   >= -1.999999858e+09
 c92: - 1e+09 B4(15) - 1e+09 B14(15) - 1e+09 B54(2) + I262(17) - I272(16)
   >= -2.99999993e+09
 c93: - 1e+09 B4(15) - 1e+09 B14(15) + 1e+09 B54(2) - I262(17) + I272(16)
   >= -1.999999861e+09
 c94: - 1e+09 B3(14) - 1e+09 B16(14) - 1e+09 B55(2) + I261(17) - I274(16)
   >= -2.99999988e+09
 c95: - 1e+09 B3(14) - 1e+09 B16(14) + 1e+09 B55(2) - I261(17) + I274(16)
   >= -1.999999847e+09
 c96: - 1e+09 B3(14) - 1e+09 B17(13) - 1e+09 B56(2) + I261(17) - I275(16)
   >= -2.999999799e+09
 c97: - 1e+09 B3(14) - 1e+09 B17(13) + 1e+09 B56(2) - I261(17) + I275(16)
   >= -1.999999849e+09
 c98: - 1e+09 B4(15) - 1e+09 B21(16) - 1e+09 B57(2) + I262(17) - I279(16)
   >= -2.999999921e+09
 c99: - 1e+09 B4(15) - 1e+09 B21(16) + 1e+09 B57(2) - I262(17) + I279(16)
   >= -1.999999857e+09
 c100: - 1e+09 B3(14) - 1e+09 B23(15) - 1e+09 B59(2) + I261(17) - I281(17)
   >= -2.999999841e+09
 c101: - 1e+09 B3(14) - 1e+09 B23(15) + 1e+09 B59(2) - I261(17) + I281(17)
   >= -1.999999846e+09
 c102: - 1e+09 B4(15) - 1e+09 B25(17) - 1e+09 B60(2) + I262(17) - I283(17)
   >= -2.999999862e+09
 c103: - 1e+09 B4(15) - 1e+09 B25(17) + 1e+09 B60(2) - I262(17) + I283(17)
   >= -1.999999861e+09
 c104: - 1e+09 B3(14) - 1e+09 B29(17) - 1e+09 B61(2) + I261(17) - I287(19)
   >= -2.999999924e+09
 c105: - 1e+09 B3(14) - 1e+09 B29(17) + 1e+09 B61(2) - I261(17) + I287(19)
   >= -1.999999845e+09
 c106: - 1e+09 B6(14) - 1e+09 B11(14) - 1e+09 B68(2) + I264(18) - I269(17)
   >= -2.999999807e+09
 c107: - 1e+09 B6(14) - 1e+09 B11(14) + 1e+09 B68(2) - I264(18) + I269(17)
   >= -1.999999829e+09
 c108: - 1e+09 B5(13) - 1e+09 B16(14) - 1e+09 B70(2) + I263(16) - I274(16)
   >= -2.999999879e+09
 c109: - 1e+09 B5(13) - 1e+09 B16(14) + 1e+09 B70(2) - I263(16) + I274(16)
   >= -1.999999839e+09
 c110: - 1e+09 B5(13) - 1e+09 B17(13) - 1e+09 B71(4) + I263(16) - I275(16)
   >= -2.999999797e+09
 c111: - 1e+09 B5(13) - 1e+09 B17(13) + 1e+09 B71(4) - I263(16) + I275(16)
   >= -1.999999835e+09
 c112: - 1e+09 B6(14) - 1e+09 B18(14) - 1e+09 B71(4) + I264(18) - I276(18)
   >= -2.999999889e+09
 c113: - 1e+09 B6(14) - 1e+09 B18(14) + 1e+09 B71(4) - I264(18) + I276(18)
   >= -1.999999828e+09
 c114: - 1e+09 B6(14) - 1e+09 B22(16) - 1e+09 B73(2) + I264(18) - I280(17)
   >= -2.999999815e+09
 c115: - 1e+09 B6(14) - 1e+09 B22(16) + 1e+09 B73(2) - I264(18) + I280(17)
   >= -1.99999983e+09
 c116: - 1e+09 B5(13) - 1e+09 B23(15) - 1e+09 B74(2) + I263(16) - I281(17)
   >= -2.999999847e+09
 c117: - 1e+09 B5(13) - 1e+09 B23(15) + 1e+09 B74(2) - I263(16) + I281(17)
   >= -1.999999837e+09
 c118: - 1e+09 B5(13) - 1e+09 B29(17) - 1e+09 B76(4) + I263(16) - I287(19)
   >= -2.999999924e+09
 c119: - 1e+09 B5(13) - 1e+09 B29(17) + 1e+09 B76(4) - I263(16) + I287(19)
   >= -1.999999837e+09
 c120: - 1e+09 B6(14) - 1e+09 B30(15) - 1e+09 B76(4) + I264(18) - I288(17)
   >= -2.999999944e+09
 c121: - 1e+09 B6(14) - 1e+09 B30(15) + 1e+09 B76(4) - I264(18) + I288(17)
   >= -1.999999828e+09
 c122: - 1e+09 B6(14) - 1e+09 B31(14) - 1e+09 B77(2) + I264(18) - I289(16)
   >= -2.999999877e+09
 c123: - 1e+09 B6(14) - 1e+09 B31(14) + 1e+09 B77(2) - I264(18) + I289(16)
   >= -1.999999829e+09
 c124: - 1e+09 B7(14) - 1e+09 B13(13) - 1e+09 B84(2) + I265(15) - I271(14)
   >= -2.999999903e+09
 c125: - 1e+09 B7(14) - 1e+09 B13(13) + 1e+09 B84(2) - I265(15) + I271(14)
   >= -1.999999777e+09
 c126: - 1e+09 B8(14) - 1e+09 B15(16) - 1e+09 B85(2) + I266(15) - I273(18)
   >= -2.999999811e+09
 c127: - 1e+09 B8(14) - 1e+09 B15(16) + 1e+09 B85(2) - I266(15) + I273(18)
   >= -1.999999836e+09
 c128: - 1e+09 B7(14) - 1e+09 B20(14) - 1e+09 B87(2) + I265(15) - I278(14)
   >= -2.999999901e+09
 c129: - 1e+09 B7(14) - 1e+09 B20(14) + 1e+09 B87(2) - I265(15) + I278(14)
   >= -1.999999772e+09
 c130: - 1e+09 B7(14) - 1e+09 B27(15) - 1e+09 B90(4) + I265(15) - I285(15)
   >= -2.99999986e+09
 c131: - 1e+09 B7(14) - 1e+09 B27(15) + 1e+09 B90(4) - I265(15) + I285(15)
   >= -1.999999777e+09
 c132: - 1e+09 B8(14) - 1e+09 B26(15) - 1e+09 B90(4) + I266(15) - I284(15)
   >= -2.999999846e+09
 c133: - 1e+09 B8(14) - 1e+09 B26(15) + 1e+09 B90(4) - I266(15) + I284(15)
   >= -1.999999835e+09
 c134: - 1e+09 B8(14) - 1e+09 B28(16) - 1e+09 B91(2) + I266(15) - I286(17)
   >= -2.999999903e+09
 c135: - 1e+09 B8(14) - 1e+09 B28(16) + 1e+09 B91(2) - I266(15) + I286(17)
   >= -1.999999839e+09
 c136: - 1e+09 B10(15) - 1e+09 B14(15) - 1e+09 B99(2) + I268(18) - I272(16)
   >= -2.999999926e+09
 c137: - 1e+09 B10(15) - 1e+09 B14(15) + 1e+09 B99(2) - I268(18) + I272(16)
   >= -1.999999919e+09
 c138: - 1e+09 B9(14) - 1e+09 B15(16) - 1e+09 B100(2) + I267(16) - I273(18)
   >= -2.999999806e+09
 c139: - 1e+09 B9(14) - 1e+09 B15(16) + 1e+09 B100(2) - I267(16) + I273(18)
   >= -1.999999901e+09
 c140: - 1e+09 B10(15) - 1e+09 B21(16) - 1e+09 B102(2) + I268(18)
   - I279(16) >= -2.999999921e+09
 c141: - 1e+09 B10(15) - 1e+09 B21(16) + 1e+09 B102(2) - I268(18)
   + I279(16) >= -1.99999992e+09
 c142: - 1e+09 B10(15) - 1e+09 B25(17) - 1e+09 B105(4) + I268(18)
   - I283(17) >= -2.999999867e+09
 c143: - 1e+09 B10(15) - 1e+09 B25(17) + 1e+09 B105(4) - I268(18)
   + I283(17) >= -1.99999992e+09
 c144: - 1e+09 B9(14) - 1e+09 B26(15) - 1e+09 B105(4) + I267(16) - I284(15)
   >= -2.999999842e+09
 c145: - 1e+09 B9(14) - 1e+09 B26(15) + 1e+09 B105(4) - I267(16) + I284(15)
   >= -1.999999902e+09
 c146: - 1e+09 B9(14) - 1e+09 B28(16) - 1e+09 B106(2) + I267(16) - I286(17)
   >= -2.999999902e+09
 c147: - 1e+09 B9(14) - 1e+09 B28(16) + 1e+09 B106(2) - I267(16) + I286(17)
   >= -1.999999899e+09
 c148: - 1e+09 B11(14) - 1e+09 B18(14) - 1e+09 B116(4) + I269(17)
   - I276(18) >= -2.999999888e+09
 c149: - 1e+09 B11(14) - 1e+09 B18(14) + 1e+09 B116(4) - I269(17)
   + I276(18) >= -1.999999808e+09
 c150: - 1e+09 B12(10) - 1e+09 B19(10) - 1e+09 B116(4) + I270(13)
   - I277(14) >= -2.999999838e+09
 c151: - 1e+09 B12(10) - 1e+09 B19(10) + 1e+09 B116(4) - I270(13)
   + I277(14) >= -1.999999893e+09
 c152: - 1e+09 B11(14) - 1e+09 B22(16) - 1e+09 B118(2) + I269(17)
   - I280(17) >= -2.999999813e+09
 c153: - 1e+09 B11(14) - 1e+09 B22(16) + 1e+09 B118(2) - I269(17)
   + I280(17) >= -1.999999807e+09
 c154: - 1e+09 B12(10) - 1e+09 B24(11) - 1e+09 B119(2) + I270(13)
   - I282(13) >= -2.999999851e+09
 c155: - 1e+09 B12(10) - 1e+09 B24(11) + 1e+09 B119(2) - I270(13)
   + I282(13) >= -1.999999891e+09
 c156: - 1e+09 B11(14) - 1e+09 B30(15) - 1e+09 B121(2) + I269(17)
   - I288(17) >= -2.999999941e+09
 c157: - 1e+09 B11(14) - 1e+09 B30(15) + 1e+09 B121(2) - I269(17)
   + I288(17) >= -1.999999808e+09
 c158: - 1e+09 B11(14) - 1e+09 B31(14) - 1e+09 B122(4) + I269(17)
   - I289(16) >= -2.999999882e+09
 c159: - 1e+09 B11(14) - 1e+09 B31(14) + 1e+09 B122(4) - I269(17)
   + I289(16) >= -1.999999812e+09
 c160: - 1e+09 B12(10) - 1e+09 B32(11) - 1e+09 B122(4) + I270(13)
   - I290(14) >= -2.999999904e+09
 c161: - 1e+09 B12(10) - 1e+09 B32(11) + 1e+09 B122(4) - I270(13)
   + I290(14) >= -1.999999892e+09
 c162: - 1e+09 B13(13) - 1e+09 B20(14) - 1e+09 B132(4) + I271(14)
   - I278(14) >= -2.999999898e+09
 c163: - 1e+09 B13(13) - 1e+09 B20(14) + 1e+09 B132(4) - I271(14)
   + I278(14) >= -1.999999902e+09
 c164: - 1e+09 B14(15) - 1e+09 B21(16) - 1e+09 B132(4) + I272(16)
   - I279(16) >= -2.99999992e+09
 c165: - 1e+09 B14(15) - 1e+09 B21(16) + 1e+09 B132(4) - I272(16)
   + I279(16) >= -1.999999928e+09
 c166: - 1e+09 B13(13) - 1e+09 B27(15) - 1e+09 B135(4) + I271(14)
   - I285(15) >= -2.999999859e+09
 c167: - 1e+09 B13(13) - 1e+09 B27(15) + 1e+09 B135(4) - I271(14)
   + I285(15) >= -1.9999999e+09
 c168: - 1e+09 B14(15) - 1e+09 B25(17) - 1e+09 B135(4) + I272(16)
   - I283(17) >= -2.999999868e+09
 c169: - 1e+09 B14(15) - 1e+09 B25(17) + 1e+09 B135(4) - I272(16)
   + I283(17) >= -1.999999927e+09
 c170: - 1e+09 B16(14) - 1e+09 B23(15) - 1e+09 B149(2) + I274(16)
   - I281(17) >= -2.999999842e+09
 c171: - 1e+09 B16(14) - 1e+09 B23(15) + 1e+09 B149(2) - I274(16)
   + I281(17) >= -1.999999886e+09
 c172: - 1e+09 B15(16) - 1e+09 B26(15) - 1e+09 B150(2) + I273(18)
   - I284(15) >= -2.999999845e+09
 c173: - 1e+09 B15(16) - 1e+09 B26(15) + 1e+09 B150(2) - I273(18)
   + I284(15) >= -1.999999808e+09
 c174: - 1e+09 B15(16) - 1e+09 B28(16) - 1e+09 B151(4) + I273(18)
   - I286(17) >= -2.999999903e+09
 c175: - 1e+09 B15(16) - 1e+09 B28(16) + 1e+09 B151(4) - I273(18)
   + I286(17) >= -1.999999809e+09
 c176: - 1e+09 B16(14) - 1e+09 B29(17) - 1e+09 B151(4) + I274(16)
   - I287(19) >= -2.99999992e+09
 c177: - 1e+09 B16(14) - 1e+09 B29(17) + 1e+09 B151(4) - I274(16)
   + I287(19) >= -1.999999885e+09
 c178: - 1e+09 B18(14) - 1e+09 B22(16) - 1e+09 B163(2) + I276(18)
   - I280(17) >= -2.999999818e+09
 c179: - 1e+09 B18(14) - 1e+09 B22(16) + 1e+09 B163(2) - I276(18)
   + I280(17) >= -1.999999887e+09
 c180: - 1e+09 B17(13) - 1e+09 B23(15) - 1e+09 B164(4) + I275(16)
   - I281(17) >= -2.999999843e+09
 c181: - 1e+09 B17(13) - 1e+09 B23(15) + 1e+09 B164(4) - I275(16)
   + I281(17) >= -1.999999798e+09
 c182: - 1e+09 B19(10) - 1e+09 B24(11) - 1e+09 B164(4) + I277(14)
   - I282(13) >= -2.999999854e+09
 c183: - 1e+09 B19(10) - 1e+09 B24(11) + 1e+09 B164(4) - I277(14)
   + I282(13) >= -1.999999836e+09
 c184: - 1e+09 B17(13) - 1e+09 B29(17) - 1e+09 B166(4) + I275(16)
   - I287(19) >= -2.999999924e+09
 c185: - 1e+09 B17(13) - 1e+09 B29(17) + 1e+09 B166(4) - I275(16)
   + I287(19) >= -1.9999998e+09
 c186: - 1e+09 B18(14) - 1e+09 B30(15) - 1e+09 B166(4) + I276(18)
   - I288(17) >= -2.999999944e+09
 c187: - 1e+09 B18(14) - 1e+09 B30(15) + 1e+09 B166(4) - I276(18)
   + I288(17) >= -1.99999989e+09
 c188: - 1e+09 B18(14) - 1e+09 B31(14) - 1e+09 B167(4) + I276(18)
   - I289(16) >= -2.999999875e+09
 c189: - 1e+09 B18(14) - 1e+09 B31(14) + 1e+09 B167(4) - I276(18)
   + I289(16) >= -1.999999888e+09
 c190: - 1e+09 B19(10) - 1e+09 B32(11) - 1e+09 B167(4) + I277(14)
   - I290(14) >= -2.999999903e+09
 c191: - 1e+09 B19(10) - 1e+09 B32(11) + 1e+09 B167(4) - I277(14)
   + I290(14) >= -1.999999836e+09
 c192: - 1e+09 B20(14) - 1e+09 B27(15) - 1e+09 B180(4) + I278(14)
   - I285(15) >= -2.999999863e+09
 c193: - 1e+09 B20(14) - 1e+09 B27(15) + 1e+09 B180(4) - I278(14)
   + I285(15) >= -1.9999999e+09
 c194: - 1e+09 B21(16) - 1e+09 B25(17) - 1e+09 B180(4) + I279(16)
   - I283(17) >= -2.999999866e+09
 c195: - 1e+09 B21(16) - 1e+09 B25(17) + 1e+09 B180(4) - I279(16)
   + I283(17) >= -1.999999923e+09
 c196: - 1e+09 B22(16) - 1e+09 B30(15) - 1e+09 B196(2) + I280(17)
   - I288(17) >= -2.99999994e+09
 c197: - 1e+09 B22(16) - 1e+09 B30(15) + 1e+09 B196(2) - I280(17)
   + I288(17) >= -1.999999815e+09
 c198: - 1e+09 B22(16) - 1e+09 B31(14) - 1e+09 B197(2) + I280(17)
   - I289(16) >= -2.999999878e+09
 c199: - 1e+09 B22(16) - 1e+09 B31(14) + 1e+09 B197(2) - I280(17)
   + I289(16) >= -1.999999815e+09
 c200: - 1e+09 B23(15) - 1e+09 B29(17) - 1e+09 B211(2) + I281(17)
   - I287(19) >= -2.999999924e+09
 c201: - 1e+09 B23(15) - 1e+09 B29(17) + 1e+09 B211(2) - I281(17)
   + I287(19) >= -1.999999843e+09
 c202: - 1e+09 B24(11) - 1e+09 B32(11) - 1e+09 B212(2) + I282(13)
   - I290(14) >= -2.999999903e+09
 c203: - 1e+09 B24(11) - 1e+09 B32(11) + 1e+09 B212(2) - I282(13)
   + I290(14) >= -1.999999852e+09
 c204: I258(15) >= 0
 c205: I258(15) >= 0
 c206: I259(15) >= 0
 c207: I259(15) >= 0
 c208: I260(17) >= 0
 c209: I260(17) >= 0
 c210: I261(17) >= 0
 c211: I261(17) >= 0
 c212: I262(17) >= 0
 c213: I262(17) >= 0
 c214: I263(16) >= 0
 c215: I263(16) >= 0
 c216: I264(18) >= 0
 c217: I264(18) >= 0
 c218: I265(15) >= 0
 c219: I265(15) >= 0
 c220: I266(15) >= 0
 c221: I266(15) >= 0
 c222: I267(16) >= 0
 c223: I267(16) >= 0
 c224: I268(18) >= 0
 c225: I268(18) >= 0
 c226: I269(17) >= 0
 c227: I269(17) >= 0
 c228: I270(13) >= 0
 c229: I270(13) >= 0
 c230: I271(14) >= 0
 c231: I271(14) >= 0
 c232: I272(16) >= 0
 c233: I272(16) >= 0
 c234: I273(18) >= 0
 c235: I273(18) >= 0
 c236: I274(16) >= 0
 c237: I274(16) >= 0
 c238: I275(16) >= 0
 c239: I275(16) >= 0
 c240: I276(18) >= 0
 c241: I276(18) >= 0
 c242: I277(14) >= 0
 c243: I277(14) >= 0
 c244: - 12 B20(14) + I278(14) >= 0
 c245: I278(14) >= 0
 c246: - 12 B21(16) + I279(16) >= 0
 c247: I279(16) >= 0
 c248: - 12 B22(16) + I280(17) >= 0
 c249: I280(17) >= 0
 c250: - 12 B23(15) + I281(17) >= 0
 c251: I281(17) >= 0
 c252: - 12 B24(11) + I282(13) >= 0
 c253: I282(13) >= 0
 c254: - 10 B25(17) + I283(17) >= 0
 c255: I283(17) >= 0
 c256: - 10 B26(15) + I284(15) >= 0
 c257: I284(15) >= 0
 c258: - 10 B27(15) + I285(15) >= 0
 c259: I285(15) >= 0
 c260: - 10 B28(16) + I286(17) >= 0
 c261: I286(17) >= 0
 c262: - 10 B29(17) + I287(19) >= 0
 c263: I287(19) >= 0
 c264: - 10 B30(15) + I288(17) >= 0
 c265: I288(17) >= 0
 c266: - 10 B31(14) + I289(16) >= 0
 c267: I289(16) >= 0
 c268: - 10 B32(11) + I290(14) >= 0
 c269: I290(14) >= 0
 c270: 147 B0(14) + I258(15) - 1e+09 B292(2) >= -9.99999897e+08
 c271: 147 B0(14) + I258(15) - 1e+09 B292(2) <= 103
 c272: 123 B1(14) + I259(15) - 1e+09 B293(2) >= -9.99999897e+08
 c273: 123 B1(14) + I259(15) - 1e+09 B293(2) <= 103
 c274: 145 B2(16) + I260(17) - 1e+09 B294(2) >= -9.99999897e+08
 c275: 145 B2(16) + I260(17) - 1e+09 B294(2) <= 103
 c276: 140 B3(14) + I261(17) - 1e+09 B295(2) >= -9.99999897e+08
 c277: 140 B3(14) + I261(17) - 1e+09 B295(2) <= 103
 c278: 130 B4(15) + I262(17) - 1e+09 B296(2) >= -9.99999897e+08
 c279: 130 B4(15) + I262(17) - 1e+09 B296(2) <= 103
 c280: 150 B5(13) + I263(16) - 1e+09 B297(4) >= -9.99999897e+08
 c281: 150 B5(13) + I263(16) - 1e+09 B297(4) <= 103
 c282: 160 B6(14) + I264(18) - 1e+09 B298(4) >= -9.99999897e+08
 c283: 160 B6(14) + I264(18) - 1e+09 B298(4) <= 103
 c284: 214 B7(14) + I265(15) - 1e+09 B299(2) >= -9.99999907e+08
 c285: 214 B7(14) + I265(15) - 1e+09 B299(2) <= 93
 c286: 150 B8(14) + I266(15) - 1e+09 B300(2) >= -9.99999907e+08
 c287: 150 B8(14) + I266(15) - 1e+09 B300(2) <= 93
 c288: 87 B9(14) + I267(16) - 1e+09 B301(2) >= -9.99999907e+08
 c289: 87 B9(14) + I267(16) - 1e+09 B301(2) <= 93
 c290: 66 B10(15) + I268(18) - 1e+09 B302(2) >= -9.99999907e+08
 c291: 66 B10(15) + I268(18) - 1e+09 B302(2) <= 93
 c292: 178 B11(14) + I269(17) - 1e+09 B303(4) >= -9.99999907e+08
 c293: 178 B11(14) + I269(17) - 1e+09 B303(4) <= 93
 c294: 95 B12(10) + I270(13) - 1e+09 B304(4) >= -9.99999907e+08
 c295: 95 B12(10) + I270(13) - 1e+09 B304(4) <= 93
 c296: 87 B13(13) + I271(14) - 1e+09 B305(2) >= -9.99999949e+08
 c297: 87 B13(13) + I271(14) - 1e+09 B305(2) <= 51
 c298: 62 B14(15) + I272(16) - 1e+09 B306(2) >= -9.99999949e+08
 c299: 62 B14(15) + I272(16) - 1e+09 B306(2) <= 51
 c300: 180 B15(16) + I273(18) - 1e+09 B307(2) >= -9.99999949e+08
 c301: 180 B15(16) + I273(18) - 1e+09 B307(2) <= 51
 c302: 105 B16(14) + I274(16) - 1e+09 B308(2) >= -9.99999949e+08
 c303: 105 B16(14) + I274(16) - 1e+09 B308(2) <= 51
 c304: 190 B17(13) + I275(16) - 1e+09 B309(4) >= -9.99999949e+08
 c305: 190 B17(13) + I275(16) - 1e+09 B309(4) <= 51
 c306: 100 B18(14) + I276(18) - 1e+09 B310(4) >= -9.99999949e+08
 c307: 100 B18(14) + I276(18) - 1e+09 B310(4) <= 51
 c308: 153 B19(10) + I277(14) - 1e+09 B311(4) >= -9.99999949e+08
 c309: 153 B19(10) + I277(14) - 1e+09 B311(4) <= 51
 c310: 87 B20(14) + I278(14) - 1e+09 B312(2) >= -9.99999969e+08
 c311: 87 B20(14) + I278(14) - 1e+09 B312(2) <= 31
 c312: 65 B21(16) + I279(16) - 1e+09 B313(2) >= -9.99999969e+08
 c313: 65 B21(16) + I279(16) - 1e+09 B313(2) <= 31
 c314: 173 B22(16) + I280(17) - 1e+09 B314(2) >= -9.99999969e+08
 c315: 173 B22(16) + I280(17) - 1e+09 B314(2) <= 31
 c316: 145 B23(15) + I281(17) - 1e+09 B315(4) >= -9.99999969e+08
 c317: 145 B23(15) + I281(17) - 1e+09 B315(4) <= 31
 c318: 136 B24(11) + I282(13) - 1e+09 B316(4) >= -9.99999969e+08
 c319: 136 B24(11) + I282(13) - 1e+09 B316(4) <= 31
 c320: 123 B25(17) + I283(17) - 1e+09 B317(2) >= -9.99999938e+08
 c321: 123 B25(17) + I283(17) - 1e+09 B317(2) <= 62
 c322: 145 B26(15) + I284(15) - 1e+09 B318(2) >= -9.99999938e+08
 c323: 145 B26(15) + I284(15) - 1e+09 B318(2) <= 62
 c324: 128 B27(15) + I285(15) - 1e+09 B319(2) >= -9.99999938e+08
 c325: 128 B27(15) + I285(15) - 1e+09 B319(2) <= 62
 c326: 86 B28(16) + I286(17) - 1e+09 B320(2) >= -9.99999938e+08
 c327: 86 B28(16) + I286(17) - 1e+09 B320(2) <= 62
 c328: 65 B29(17) + I287(19) - 1e+09 B321(2) >= -9.99999938e+08
 c329: 65 B29(17) + I287(19) - 1e+09 B321(2) <= 62
 c330: 47 B30(15) + I288(17) - 1e+09 B322(2) >= -9.99999938e+08
 c331: 47 B30(15) + I288(17) - 1e+09 B322(2) <= 62
 c332: 110 B31(14) + I289(16) - 1e+09 B323(4) >= -9.99999938e+08
 c333: 110 B31(14) + I289(16) - 1e+09 B323(4) <= 62
 c334: 85 B32(11) + I290(14) - 1e+09 B324(4) >= -9.99999938e+08
 c335: 85 B32(11) + I290(14) - 1e+09 B324(4) <= 62
 qc0: I291(1) - 47 B297(4) - 57 B298(4) - 85 B303(4) - 2 B304(4)
   - 139 B309(4) - 49 B310(4) - 102 B311(4) - 114 B315(4) - 105 B316(4)
   - 48 B323(4) - 23 B324(4) + [ - I263(16) * B297(4) - I264(18) * B298(4)
   - I269(17) * B303(4) - I270(13) * B304(4) - I275(16) * B309(4)
   - I276(18) * B310(4) - I277(14) * B311(4) - I281(17) * B315(4)
   - I282(13) * B316(4) - I289(16) * B323(4) - I290(14) * B324(4) ] >= 0
Bounds
Binaries
 B0(14) B1(14) B2(16) B3(14) B4(15) B5(13) B6(14) B7(14) B8(14) B9(14)
 B10(15) B11(14) B12(10) B13(13) B14(15) B15(16) B16(14) B17(13) B18(14)
 B19(10) B20(14) B21(16) B22(16) B23(15) B24(11) B25(17) B26(15) B27(15)
 B28(16) B29(17) B30(15) B31(14) B32(11) B33(0) B34(0) B35(0) B36(4) B37(4)
 B38(0) B39(4) B40(2) B41(0) B42(4) B43(0) B44(0) B45(6) B46(2) B47(0)
 B48(0) B49(0) B50(0) B51(0) B52(2) B53(0) B54(2) B55(2) B56(2) B57(2)
 B58(0) B59(2) B60(2) B61(2) B62(0) B63(0) B64(0) B65(0) B66(0) B67(0)
 B68(2) B69(0) B70(2) B71(4) B72(0) B73(2) B74(2) B75(0) B76(4) B77(2)
 B78(0) B79(0) B80(0) B81(0) B82(0) B83(0) B84(2) B85(2) B86(0) B87(2)
 B88(0) B89(0) B90(4) B91(2) B92(0) B93(0) B94(0) B95(0) B96(0) B97(0)
 B98(0) B99(2) B100(2) B101(0) B102(2) B103(0) B104(0) B105(4) B106(2)
 B107(0) B108(0) B109(0) B110(0) B111(0) B112(0) B113(0) B114(0) B115(0)
 B116(4) B117(0) B118(2) B119(2) B120(0) B121(2) B122(4) B123(0) B124(0)
 B125(0) B126(0) B127(0) B128(0) B129(0) B130(0) B131(0) B132(4) B133(0)
 B134(0) B135(4) B136(0) B137(0) B138(0) B139(0) B140(0) B141(0) B142(0)
 B143(0) B144(0) B145(0) B146(0) B147(0) B148(0) B149(2) B150(2) B151(4)
 B152(0) B153(0) B154(0) B155(0) B156(0) B157(0) B158(0) B159(0) B160(0)
 B161(0) B162(0) B163(2) B164(4) B165(0) B166(4) B167(4) B168(0) B169(0)
 B170(0) B171(0) B172(0) B173(0) B174(0) B175(0) B176(0) B177(0) B178(0)
 B179(0) B180(4) B181(0) B182(0) B183(0) B184(0) B185(0) B186(0) B187(0)
 B188(0) B189(0) B190(0) B191(0) B192(0) B193(0) B194(0) B195(0) B196(2)
 B197(2) B198(0) B199(0) B200(0) B201(0) B202(0) B203(0) B204(0) B205(0)
 B206(0) B207(0) B208(0) B209(0) B210(0) B211(2) B212(2) B213(0) B214(0)
 B215(0) B216(0) B217(0) B218(0) B219(0) B220(0) B221(0) B222(0) B223(0)
 B224(0) B225(0) B226(0) B227(0) B228(0) B229(0) B230(0) B231(0) B232(0)
 B233(0) B234(0) B235(0) B236(0) B237(0) B238(0) B239(0) B240(0) B241(0)
 B242(0) B243(0) B244(0) B245(0) B246(0) B247(0) B248(0) B249(0) B250(0)
 B251(0) B252(0) B253(0) B254(0) B255(0) B256(0) B257(0) B292(2) B293(2)
 B294(2) B295(2) B296(2) B297(4) B298(4) B299(2) B300(2) B301(2) B302(2)
 B303(4) B304(4) B305(2) B306(2) B307(2) B308(2) B309(4) B310(4) B311(4)
 B312(2) B313(2) B314(2) B315(4) B316(4) B317(2) B318(2) B319(2) B320(2)
 B321(2) B322(2) B323(4) B324(4)
Generals
 I258(15) I259(15) I260(17) I261(17) I262(17) I263(16) I264(18) I265(15)
 I266(15) I267(16) I268(18) I269(17) I270(13) I271(14) I272(16) I273(18)
 I274(16) I275(16) I276(18) I277(14) I278(14) I279(16) I280(17) I281(17)
 I282(13) I283(17) I284(15) I285(15) I286(17) I287(19) I288(17) I289(16)
 I290(14) I291(1)
End
